cases/matpower/case7_tplgy.m
ipopt
ACP
[warn | PowerModels]: added zero cost function data for dclines
[warn | PowerModels]: active storage unit 1 is connected to inactive bus 6
[warn | PowerModels]: active branch 6 is connected to inactive bus 6
[warn | PowerModels]: active branch 7 is connected to inactive bus 6
[warn | PowerModels]: active dcline 2 is connected to inactive bus 6
[info | PowerModels]: removing 1 cost terms from generator 1: [100.0, 0.0]
[info | PowerModels]: removing 1 cost terms from generator 2: [100.0, 0.0]
[info | PowerModels]: removing 1 cost terms from generator 3: [1000.0, 0.0]
[info | PowerModels]: removing 3 cost terms from dcline 1: Float64[]
[info | PowerModels]: removing 3 cost terms from dcline 2: Float64[]
[info | PowerModels]: removing 3 cost terms from dcline 3: Float64[]

******************************************************************************
This program contains Ipopt, a library for large-scale nonlinear optimization.
 Ipopt is released as open source code under the Eclipse Public License (EPL).
         For more information visit http://projects.coin-or.org/Ipopt
******************************************************************************

This is Ipopt version 3.13.2, running with linear solver mumps.
NOTE: Other linear solvers might be more efficient (see Ipopt documentation).

Number of nonzeros in equality constraint Jacobian...:       67
Number of nonzeros in inequality constraint Jacobian.:       16
Number of nonzeros in Lagrangian Hessian.............:       94

Total number of variables............................:       30
                     variables with only lower bounds:        0
                variables with lower and upper bounds:       24
                     variables with only upper bounds:        0
Total number of equality constraints.................:       22
Total number of inequality constraints...............:        8
        inequality constraints with only lower bounds:        2
   inequality constraints with lower and upper bounds:        0
        inequality constraints with only upper bounds:        6

iter    objective    inf_pr   inf_du lg(mu)  ||d||  lg(rg) alpha_du alpha_pr  ls
   0  1.1999988e+01 1.11e+00 1.98e+00  -1.0 0.00e+00    -  0.00e+00 0.00e+00   0
   1  2.6306287e+02 9.45e-01 2.12e+01  -1.0 1.60e+00  -4.0 6.58e-03 1.48e-01h  1
   2  1.7237113e+03 9.18e-02 1.11e+01  -1.0 1.39e+00  -4.5 1.86e-01 9.90e-01h  1
   3  1.7490801e+03 5.55e-02 6.75e+02  -1.0 2.10e+00  -5.0 9.72e-01 3.92e-01h  1
   4  1.7913576e+03 1.34e-03 2.56e+01  -1.0 1.29e+00  -5.4 1.00e+00 9.90e-01h  1
   5  1.7921905e+03 3.73e-05 6.23e-03  -1.0 4.09e-02  -5.9 1.00e+00 1.00e+00h  1
   6  1.7906503e+03 2.59e-04 2.60e+04  -3.8 3.01e-02  -6.4 8.56e-01 1.00e+00f  1
   7  1.7903025e+03 1.15e-04 7.32e+03  -3.8 4.90e-02  -6.9 7.19e-01 9.77e-01h  1
   8  1.7902458e+03 4.65e-05 2.23e-06  -3.8 3.05e-02  -7.3 1.00e+00 1.00e+00f  1
   9  1.7902398e+03 2.28e-07 6.02e+00  -5.7 2.14e-03  -7.8 1.00e+00 1.00e+00h  1
iter    objective    inf_pr   inf_du lg(mu)  ||d||  lg(rg) alpha_du alpha_pr  ls
  10  1.7902398e+03 1.24e-11 1.84e-11  -5.7 1.58e-05  -8.3 1.00e+00 1.00e+00h  1
  11  1.7902397e+03 5.24e-12 2.65e-11  -8.6 1.02e-05  -8.8 1.00e+00 1.00e+00h  1

Number of Iterations....: 11

                                   (scaled)                 (unscaled)
Objective...............:   1.7902397368531854e+02    1.7902397368531854e+03
Dual infeasibility......:   2.6485730046141977e-11    2.6485730046141977e-10
Constraint violation....:   5.2364779179470133e-12    5.2364779179470133e-12
Complementarity.........:   2.6216546834000081e-09    2.6216546834000081e-08
Overall NLP error.......:   2.6216546834000081e-09    2.6216546834000081e-08


Number of objective function evaluations             = 12
Number of objective gradient evaluations             = 12
Number of equality constraint evaluations            = 12
Number of inequality constraint evaluations          = 12
Number of equality constraint Jacobian evaluations   = 12
Number of inequality constraint Jacobian evaluations = 12
Number of Lagrangian Hessian evaluations             = 11
Total CPU secs in IPOPT (w/o function evaluations)   =      1.258
Total CPU secs in NLP function evaluations           =      2.267

EXIT: Optimal Solution Found.
Time to Solution........:4.263715028762817
